96
2
64 31 31 96 61 83 1 22 38 3 1 88 52 89 24 100 38 83 63 70 17 99 62 88 2 4 28 97 5 63 45 43 1 51 52 29 
41 57 7 24 10 70 90 95 40 96 54 6 56 65 50 48 38 6 70 54 59 64 93 58 77 9 29 68 9 50 56 39 46 40 42 10 
1 1 2 2 1 1 1 1 2 1 1 2 2 1 1 1 2 2 1 1 1 2 1 1 2 1 2 2 2 2 1 1 1 2 1 1 